(set-info :smt-lib-version 2.6)
(set-logic QF_S)
(set-info :source |
Generated by: Murphy Berzish, Mitja Kulczynski, Federico Mora, Florin Manea, Joel Day, Dirk Nowotka, Vijay Ganesh, Zhengyang Lu
Generated on: 2020-10-01
Description: Translated from a collection of real-world regex queries, AutomataArk, collected by Loris D’Antoni and Fang Wang: https://github.com/lorisdanto/automatark
Application: Evaluate solvers on real-world regex queries
Target solver: Z3str3RE, CVC4, OSTRICH, Z3seq, Z3str3, Z3-Trau
Publications: Berzish, M., Kulczynski, M., Mora, F., Manea, F., Day, J. D., Nowotka, D., & Ganesh, V. (2021, July). An SMT solver for regular expressions and linear arithmetic over string length. In CAV 2021.
|)
(set-info :license "https://creativecommons.org/licenses/by/4.0/")
(set-info :category "industrial")
(set-info :status sat)

(declare-const X String)
(assert (not (str.in_re X (re.++ (str.to_re "are") (re.+ (re.union (str.to_re " ") (str.to_re "\u{9}") (str.to_re "\u{a}") (str.to_re "\u{c}") (str.to_re "\u{d}"))) (str.to_re "Toolbar") (re.+ (re.union (str.to_re " ") (str.to_re "\u{9}") (str.to_re "\u{a}") (str.to_re "\u{c}") (str.to_re "\u{d}"))) (str.to_re "X-Mailer:\u{13}Informationsearchnugget\u{13}spastb.freeprod.com\u{a}")))))
(assert (not (str.in_re X (re.++ (str.to_re "Google") (re.+ (re.union (str.to_re " ") (str.to_re "\u{9}") (str.to_re "\u{a}") (str.to_re "\u{c}") (str.to_re "\u{d}"))) (str.to_re "jupitersatellites.biz") (re.+ (re.union (str.to_re " ") (str.to_re "\u{9}") (str.to_re "\u{a}") (str.to_re "\u{c}") (str.to_re "\u{d}"))) (str.to_re "Eyewww.ccnnlc.com\u{13}\u{a}")))))
(assert (not (str.in_re X (re.++ (str.to_re "Host:") (re.+ (re.union (re.range "0" "9") (re.range "A" "Z") (re.range "a" "z") (str.to_re "_"))) (str.to_re "Pre") (re.* re.allchar) (str.to_re "Keyloggeradfsgecoiwnf\u{1b}hirmvtg/ggqh.kqh\u{1b}\u{a}")))))
(assert (str.in_re X (re.++ (re.union (str.to_re "V") (str.to_re "|") (str.to_re "E") (str.to_re "J") (str.to_re "G") (str.to_re "v") (str.to_re "e") (str.to_re "j") (str.to_re "g")) ((_ re.loop 5 8) (re.range "0" "9")) (str.to_re "\u{a}"))))
(assert (not (str.in_re X (re.++ (str.to_re "IP-") (re.* (re.union (str.to_re "\u{a}") (str.to_re "\u{d}"))) (str.to_re "URL") (re.range "0" "9") (str.to_re "|roogoo|.cfgmPOPrtCUSTOMPalToolbar\u{a}")))))
(check-sat)

(exit)
